\ Model mip1
\ LP format - for model browsing. Use MPS format to capture full model detail.
Minimize
  9.764130935583653 f(x_0) + 72.39676057692408 f(x_1)
   + 16.86425731426852 f(x_2) + 84.27035513456647 f(x_3)
   + 96.94678313595359 f(x_4) + 3.585352128173974 f(x_5)
   + 23.87020200232849 f(x_6) + 97.68624382256799 f(x_7)
   + 53.81599538580414 f(x_8) + 99.62651082765807 f(x_9)
   + 4.237946654444519 f(x_10) + 9.698433284349644 f(x_11)
   + 13.72828622808537 f(x_12) + 84.97300016691386 f(x_13)
   + 10.16865739787817 f(x_14) + 51.19535631136809 f(x_15)
   + 95.93202613600873 f(x_16) + 82.77791155466845 f(x_17)
   + 74.22427801462723 f(x_18) + 18.92666812978765 f(x_19)
Subject To
 constr_x_0: - x_0 + f(x_0) = 0
 constr_x_1: - x_1 + f(x_1) = 0
 constr_x_2: - x_2 + f(x_2) = 0
 constr_x_3: - x_3 + f(x_3) = 0
 constr_x_4: - x_4 + f(x_4) = 0
 constr_x_5: - x_5 + f(x_5) = 0
 constr_x_6: - x_6 + f(x_6) = 0
 constr_x_7: - x_7 + f(x_7) = 0
 constr_x_8: - x_8 + f(x_8) = 0
 constr_x_9: - x_9 + f(x_9) = 0
 constr_x_10: - x_10 + f(x_10) = 0
 constr_x_11: - x_11 + f(x_11) = 0
 constr_x_12: - x_12 + f(x_12) = 0
 constr_x_13: - x_13 + f(x_13) = 0
 constr_x_14: - x_14 + f(x_14) = 0
 constr_x_15: - x_15 + f(x_15) = 0
 constr_x_16: - x_16 + f(x_16) = 0
 constr_x_17: - x_17 + f(x_17) = 0
 constr_x_18: - x_18 + f(x_18) = 0
 constr_x_19: - x_19 + f(x_19) = 0
 R20: x_0 + x_1 + x_2 + x_3 + x_4 + x_5 + x_6 + x_7 + x_8 + x_9 + x_10
   + x_11 + x_12 + x_13 + x_14 + x_15 + x_16 + x_17 + x_18 + x_19 = 5
Bounds
 x_0 <= 5
 x_1 <= 5
 x_2 <= 5
 x_3 <= 5
 x_4 <= 5
 x_5 <= 5
 x_6 <= 5
 x_7 <= 5
 x_8 <= 5
 x_9 <= 5
 x_10 <= 5
 x_11 <= 5
 x_12 <= 5
 x_13 <= 5
 x_14 <= 5
 x_15 <= 5
 x_16 <= 5
 x_17 <= 5
 x_18 <= 5
 x_19 <= 5
Generals
 x_0 x_1 x_2 x_3 x_4 x_5 x_6 x_7 x_8 x_9 x_10 x_11 x_12 x_13 x_14 x_15 x_16
 x_17 x_18 x_19
End
